6	18	19	7	16	16	1	1	6	7
12	19	3	1	12	13	14	15	16	16
4	8	12	10	2	16	1	9	6	13
13	13	1	18	17	2	4	7	8	8
6	4	7	7	9	5	4	18	5	5
1	16	10	10	20	2	11	17	12	18
4	2	16	13	2	8	12	15	15	1
10	7	11	4	4	19	12	6	18	20
20	7	20	17	5	7	1	3	9	5
